nj = 5;
nm = 4;
pidle =  [2 1 3 3];
Ops =  {<1 1 1 6 0 5 4> <1 2 2 12 0 1 4>
     <1 3 4 9 1 2 5>
     <2 1 1 18 0 5 3>
     <2 2 3 6 0 1 5>
     <2 3 2 15 1 3 5>
     <3 1 3 9 0 5 3>
     <3 2 4 3 0 3 4>
     <3 3 1 12 1 4 5>
     <4 1 4 6 0 5 3>
     <4 2 2 15 1 4 5>
     <5 1 3 3 0 5 3>
     <5 2 1 9 1 3 3>};
